nApps = 207
nRes = 9
nActs = 442
nNetworks = 6

assignmentToResources = [1,1,1,2,2,3,3,2,2,3,2,3,3,2,3,2,2,1,3,1,3,3,1,3,3,1,3,1,1,3,3,3,2,3,2,2,3,1,1,1,2,1,1,2,2,1,3,3,3,3,2,2,2,1,2,2,3,3,3,2,2,1,2,2,1,3,2,2,1,1,2,1,3,3,2,1,2,1,2,3,3,2,1,1,1,3,3,3,2,3,3,3,1,2,2,2,3,1,2,3,4,4,4,4,4,4,4,4,5,5,5,6,6,6,6,6,6,5,5,5,5,6,6,6,6,5,6,6,6,6,5,5,5,5,5,4,4,4,4,6,6,4,4,6,6,4,6,4,4,4,4,4,4,6,6,6,6,6,6,6,5,5,5,6,6,5,5,6,4,4,4,4,4,4,4,4,4,5,4,4,4,5,4,6,6,6,6,6,6,6,6,6,6,5,5,5,5,4,5,5,5,5,5,5,5,6,6,5,5,4,4,5,5,5,5,5,5,4,5,5,5,5,5,4,6,6,4,4,4,4,5,6,6,6,6,6,4,4,4,5,6,5,7,4,9,6,7,6,8,4,9,6,8,5,9,5,7,6,8,4,9,4,8,5,7,5,7,4,9,5,7,6,7,4,9,6,7,4,8,6,7,5,9,6,7,4,9,4,9,5,7,4,8,5,9,6,7,6,8,6,8,8,9,9,9,9,9,8,8,9,7,9,7,7,8,7,7,8,9,9,7,9,7,8,8,8,9,8,8,7,8,9,9,9,7,9,8,9,8,8,7,8,9,9,7,7,9,8,8,8,8,9,9,9,7,7,7,8,8,7,7,9,9,9,7,7,9,7,8,9,8,8,8,8,9,8,9,9,7,9,8,9,9,8,8,7,8,8,7,7,8,7,8,7,7,7,9,7,8,9,9,9,7,7,9,7,8,8,9,9,9,8,7,7,9,9,9,9,9,9,9,9,7,7,8,8,7,9,8,8,8,9,8,7,7,7,7,8,8,8,9,7];

processingTimes = [80,104,168,104,128,112,136,168,64,120,128,136,144,72,72,128,168,56,112,112,56,160,136,48,128,72,80,112,48,136,112,88,136,56,144,136,128,144,72,128,136,120,160,112,136,88,136,128,168,80,120,112,144,88,128,56,80,136,104,48,64,80,120,144,152,128,120,144,136,104,88,104,128,88,144,80,112,64,136,64,64,56,72,160,144,144,104,48,128,120,168,88,104,160,120,112,56,120,112,136,13,3,5,8,13,17,500,4,3,4,500,500,3,500,8,500,13,4,4,4,4,200,7,3,200,7,4,13,3,3,4,13,4,4,3,5,3,3,500,3,3,3,4,4,4,500,13,3,500,500,500,3,500,500,500,5,3,3,4,3,3,500,3,100,4,4,4,4,500,4,4,3,3,3,500,4,3,3,4,3,500,500,4,8,8,8,3,3,3,4,4,4,8,3,3,3,4,13,3,4,3,3,3,3,3,4,3,3,4,8,500,3,3,3,3,8,8,4,5,4,3,4,4,500,8,3,500,5,5,5,3,4,5,500,3,3,3,500,3,4,500,16,16,3,3,3,3,3,3,13,13,3,3,3,3,4,4,3,3,4,4,4,4,3,3,4,4,13,13,3,3,4,4,4,4,3,3,4,4,500,500,500,500,4,4,5,5,4,4,5,5,3,3,3,3,5,5,500,500,500,500,13,3,5,8,13,17,500,4,3,4,500,500,3,500,8,500,13,4,4,4,4,200,7,3,200,7,4,13,3,3,4,13,4,4,3,5,3,3,500,3,3,3,4,4,4,500,13,3,500,500,500,3,500,500,500,5,3,3,4,3,3,500,3,100,4,4,4,4,500,4,4,3,3,3,500,4,3,3,4,3,500,500,4,8,8,8,3,3,3,4,4,4,8,3,3,3,4,13,3,4,3,3,3,3,3,4,3,3,4,8,500,3,3,3,3,8,8,4,5,4,3,4,4,500,8,3,500,5,5,5,3,4,5,500,3,3,3,500,3,4,500];

periods = [100000,100000,10000,100000,20000,100000,10000,10000,100000,2000,50000,20000,100000,10000,100000,5000,2000,10000,10000,20000,10000,20000,20000,10000,10000,20000,100000,100000,20000,100000,20000,20000,100000,1000,100000,10000,50000,20000,10000,1000,10000,20000,10000,100000,10000,2000,10000,10000,5000,20000,10000,10000,100000,10000,10000,20000,20000,1000,2000,10000,5000,5000,20000,10000,10000,50000,10000,1000,20000,20000,5000,10000,10000,10000,10000,10000,10000,10000,20000,100000,10000,20000,5000,1000,20000,10000,20000,100000,10000,100000,100000,100000,20000,10000,100000,10000,5000,5000,20000,100000,100000,100000,100000,100000,100000,100000,10000,10000,100000,20000,20000,100000,100000,10000,10000,10000,10000,10000,100000,100000,100000,2000,2000,2000,2000,50000,20000,20000,100000,100000,10000,10000,5000,5000,5000,10000,10000,10000,10000,10000,10000,20000,20000,10000,10000,20000,100000,100000,100000,100000,20000,20000,20000,100000,100000,20000,20000,20000,20000,20000,100000,100000,100000,1000,1000,100000,10000,50000,20000,20000,20000,10000,10000,10000,10000,10000,1000,10000,20000,10000,10000,10000,2000,10000,10000,10000,10000,10000,10000,10000,5000,20000,20000,10000,10000,10000,100000,10000,10000,10000,10000,10000,20000,20000,20000,20000,20000,10000,10000,5000,5000,20000,20000,20000,20000,10000,10000,10000,10000,10000,1000,1000,1000,20000,10000,10000,10000,5000,5000,20000,10000,100000,100000,100000,100000,100000,20000,5000,5000,20000,100000,100000,100000,100000,100000,100000,100000,100000,100000,100000,100000,100000,100000,100000,100000,10000,10000,10000,10000,10000,10000,20000,20000,20000,20000,10000,10000,10000,10000,20000,20000,20000,20000,20000,20000,20000,20000,20000,20000,10000,10000,10000,10000,20000,20000,20000,20000,20000,20000,20000,20000,1000,1000,1000,1000,1000,1000,10000,10000,10000,10000,100000,100000,100000,100000,100000,100000,10000,10000,100000,20000,20000,100000,100000,10000,10000,10000,10000,10000,100000,100000,100000,2000,2000,2000,2000,50000,20000,20000,100000,100000,10000,10000,5000,5000,5000,10000,10000,10000,10000,10000,10000,20000,20000,10000,10000,20000,100000,100000,100000,100000,20000,20000,20000,100000,100000,20000,20000,20000,20000,20000,100000,100000,100000,1000,1000,100000,10000,50000,20000,20000,20000,10000,10000,10000,10000,10000,1000,10000,20000,10000,10000,10000,2000,10000,10000,10000,10000,10000,10000,10000,5000,20000,20000,10000,10000,10000,100000,10000,10000,10000,10000,10000,20000,20000,20000,20000,20000,10000,10000,5000,5000,20000,20000,20000,20000,10000,10000,10000,10000,10000,1000,1000,1000,20000,10000,10000,10000,5000,5000,20000,10000,100000,100000,100000,100000,100000,20000,5000,5000,20000,100000];

assignmentToClusters = [1,2,3,2,4,5,3,6,7,8,9,10,2,11,2,12,13,14,15,4,6,16,10,17,18,19,20,1,10,21,22,10,1,23,24,25,26,27,28,29,30,31,32,33,34,35,36,37,38,19,39,40,41,6,42,4,43,29,44,37,45,46,19,47,48,26,49,29,50,19,51,52,53,14,3,54,55,56,10,57,58,10,59,29,19,3,19,1,60,61,1,62,4,36,1,14,63,64,65,66,67,68,69,70,71,72,73,74,75,76,77,78,79,80,81,82,83,84,85,86,87,88,89,90,91,92,93,94,95,96,97,98,99,100,101,102,103,104,105,106,107,108,109,110,111,112,113,114,115,116,117,118,119,120,121,122,123,124,125,126,127,128,129,130,131,132,133,134,135,136,137,138,139,140,141,142,143,144,145,146,147,148,149,150,151,152,153,154,155,156,157,158,159,160,161,162,163,164,165,166,167,168,169,170,171,172,173,174,175,176,177,178,179,180,181,182,183,184,185,186,187,188,189,190,191,192,193,194,195,196,197,198,199,200,201,202,203,204,205,206,207,1,1,1,1,1,1,1,1,2,2,2,2,2,2,3,3,3,3,3,3,4,4,4,4,6,6,6,6,10,10,10,10,10,10,10,10,10,10,14,14,14,14,19,19,19,19,19,19,19,19,29,29,29,29,29,29,36,36,37,37,67,68,69,70,71,72,73,74,75,76,77,78,79,80,81,82,83,84,85,86,87,88,89,90,91,92,93,94,95,96,97,98,99,100,101,102,103,104,105,106,107,108,109,110,111,112,113,114,115,116,117,118,119,120,121,122,123,124,125,126,127,128,129,130,131,132,133,134,135,136,137,138,139,140,141,142,143,144,145,146,147,148,149,150,151,152,153,154,155,156,157,158,159,160,161,162,163,164,165,166,167,168,169,170,171,172,173,174,175,176,177,178,179,180,181,182,183,184,185,186,187,188,189,190,191,192,193,194,195,196,197,198,199,200,201,202,203,204,205,206,207];

precedenceAdjList = [[242],[],[256],[252],[262],[],[],[],[],[],[],[],[254],[],[250],[],[],[280],[],[],[268],[],[270,272],[],[],[69],[],[246],[276],[],[],[274],[248],[],[],[],[65],[],[],[],[],[],[],[],[],[],[],[],[],[],[],[],[],[266],[],[4],[],[294],[],[300],[],[],[],[],[],[],[],[292],[],[284],[],[],[],[282],[258],[],[],[],[278],[],[],[],[],[296],[290],[260],[286,288],[244],[],[],[87],[],[264],[298],[],[],[],[],[],[],[],[],[],[],[],[],[],[],[],[],[],[],[],[],[],[],[],[],[],[],[],[],[],[],[],[],[],[],[],[],[],[],[],[],[],[],[],[],[],[],[],[],[],[],[],[],[],[],[],[],[],[],[],[],[],[],[],[],[],[],[],[],[],[],[],[],[],[],[],[],[],[],[],[],[],[],[],[],[],[],[],[],[],[],[],[],[],[],[],[],[],[],[],[],[],[],[],[],[],[],[],[],[],[],[],[],[],[],[],[],[],[],[],[],[],[],[],[],[],[],[],[],[],[],[],[],[],[],[],[],[],[],[],[],[],[],[],[],[],[],[],[94],[241],[0],[243],[90],[245],[87],[247],[1],[249],[14],[251],[3],[253],[74],[255],[6],[257],[2],[259],[19],[261],[55],[263],[7],[265],[53],[267],[81],[269],[11],[271],[22],[273],[31],[275],[22],[277],[73],[279],[95],[281],[49],[283],[84],[285],[25],[287],[62],[289],[39],[291],[67],[293],[57],[295],[46],[297],[47],[299],[100],[101],[102],[103],[104],[105],[106],[107],[108],[109],[110],[111],[112],[113],[114],[115],[116],[117],[118],[119],[120],[121],[122],[123],[124],[125],[126],[127],[128],[129],[130],[131],[132],[133],[134],[135],[136],[137],[138],[139],[140],[141],[142],[143],[144],[145],[146],[147],[148],[149],[150],[151],[152],[153],[154],[155],[156],[157],[158],[159],[160],[161],[162],[163],[164],[165],[166],[167],[168],[169],[170],[171],[172],[173],[174],[175],[176],[177],[178],[179],[180],[181],[182],[183],[184],[185],[186],[187],[188],[189],[190],[191],[192],[193],[194],[195],[196],[197],[198],[199],[200],[201],[202],[203],[204],[205],[206],[207],[208],[209],[210],[211],[212],[213],[214],[215],[216],[217],[218],[219],[220],[221],[222],[223],[224],[225],[226],[227],[228],[229],[230],[231],[232],[233],[234],[235],[236],[237],[238],[239],[240]];